500
1000
800
799
796
795
794
794
791
789
789
787
787
786
783
781
781
781
781
780
778
778
777
773
771
771
770
769
767
765
764
763
762
761
761
759
756
756
756
754
754
753
750
749
749
748
748
747
746
746
746
745
744
742
742
738
738
737
737
737
733
726
725
724
723
723
721
720
716
714
713
712
709
709
705
705
703
702
702
698
697
696
695
694
693
692
692
691
690
689
689
689
689
688
688
685
681
680
676
673
673
673
669
669
668
667
667
664
662
661
660
660
658
658
658
657
656
656
654
651
651
650
649
649
649
648
643
643
641
637
637
636
636
634
632
631
630
629
628
627
626
624
624
620
620
616
615
615
613
606
606
605
603
601
601
601
601
600
595
593
592
591
586
586
584
584
578
576
575
575
571
571
570
569
569
567
567
566
566
566
563
563
562
561
560
560
559
557
557
556
555
551
551
549
545
545
544
544
542
542
538
535
533
532
531
531
529
528
527
527
523
523
523
521
519
518
515
514
511
511
509
506
505
504
500
497
494
493
492
490
489
487
487
483
481
480
475
474
471
470
467
464
463
463
461
455
455
453
452
450
450
450
448
447
443
442
440
440
439
439
438
437
436
435
434
428
425
422
422
421
421
420
419
419
418
418
417
411
411
410
409
409
407
406
406
405
403
401
398
397
391
390
390
387
386
386
386
384
382
381
380
376
375
374
373
373
373
372
370
365
363
363
360
357
356
356
351
351
345
345
343
342
340
338
338
337
336
333
332
329
329
328
326
323
318
316
316
314
312
310
309
308
307
300
300
297
297
297
296
291
288
287
286
286
285
284
284
280
280
279
276
275
274
273
273
272
270
270
269
269
268
266
266
265
264
264
264
261
261
260
259
259
258
257
253
253
252
250
249
248
248
248
246
241
241
241
237
237
237
235
235
233
233
233
232
231
228
227
226
223
222
221
216
216
216
215
215
214
214
213
211
210
210
206
205
203
201
201
199
199
199
198
198
194
193
192
192
192
189
185
185
184
184
182
182
179
179
178
173
171
170
168
168
166
165
163
162
161
159
159
159
156
156
155
152
147
146
145
144
141
141
140
139
138
138
138
137
137
136
135
134
132
132
127
123
122
122
121
120
120
117
116
115
114
109
106
106
102
101
101
101
100
